% demand
num_movements = 31;
loading_factor = [1900, 1300, 950, 1200, 1350, 1250, 1350, 1100, 1850, 1300, 850, 1400, 1650, 850, 1800, 1950, 1550, 1150, 950, 1850, 1750, 1600, 1950, 1550, 1100, 1100, 1400, 1250, 1950, 1950, 1400];
pickup_time = [0, 0, 0, 0, 0, 0, 1, 3, 3, 3, 3, 3, 3, 3, 4, 4, 4, 4, 4, 4, 4, 5, 5, 5, 5, 6, 6, 6, 7, 8, 9];
delivery_time = [4, 1, 2, 2, 1, 2, 2, 4, 4, 4, 4, 4, 4, 4, 5, 5, 5, 5, 5, 5, 6, 6, 6, 6, 10, 7, 8, 10, 8, 10, 10];

% transporter definition
total_capacity = 11000;
num_decks = 4;
capacity = [3000, 3000, 1000, 4000];

% ways out of decks
num_ways_out = 2;
paths_out = array3d(decks, ways_out, decks, [
% ways out of deck d1
2, 4, 0, 0, 3, 4, 0, 0, 

% ways out of deck d2
4, 0, 0, 0, 0, 0, 0, 0,	

% ways out of deck d3
4, 0, 0, 0, 0, 0, 0, 0,	

% ways out of deck d4
0, 0, 0, 0,	0, 0, 0, 0,	

]);

